(set-logic HORN)
(declare-fun inv ((_ BitVec 64) (_ BitVec 64) ) Bool)
(assert (forall ((i (_ BitVec 64)) (k (_ BitVec 64))) 
       (=> ( and ( = i (_ bv0 64) ) ( = k (_ bv0 64) ) ) (inv i k))))
(assert (forall ((i (_ BitVec 64)) (k (_ BitVec 64)) (i! (_ BitVec 64)) (k! (_ BitVec 64))) 
       (=> (and (inv i k) ( and ( bvslt i (_ bv1000 64) ) ( = i! ( bvadd i (_ bv1 64) ) ) ( = k! ( bvadd k ( bvmul i! i! ) ) ) )) (inv i! k!))))
(assert (forall ((i (_ BitVec 64)) (k (_ BitVec 64))) 
       (=> (inv i k) ( or ( bvslt i (_ bv1000 64) ) ( bvsle (_ bv1000000 64) k ) ))))
(check-sat)
